5 5
5 3 2 7 1 12 5 20 5 4 13 5 17 1 19 2 5 3 19 3 1 17 4 13 2 11 3 3 18 5 13 2 12 1 1 7
4 5 1 2 3 3 5 11 4 10 2 5 5 5 11 4 2 3 7 2 3 1 20 2 1 13 5 19 1 2 15
5 4 2 9 4 7 1 18 3 8 1 5 20 2 3 5 4 8 3 2 2 3 17 4 19 5 1 17 5 7 3 8 2 8 4 8
4 4 2 14 3 6 4 10 5 2 4 5 17 3 5 1 15 4 3 4 4 12 5 18 2 2 1 5 4 5 8 2 19 4 6 1 17
6 4 5 10 2 8 4 7 1 13 5 1 4 5 20 4 4 2 4 3 9 3 4 11 1 15 5 16 5 3 16 4 17 5 17 2 18 1 20 4 3 15 4 16 2 13 1 20 4 2 3 1 17 3 7 4 8